/*********************************************
 * OPL 22.1.1.0 Data
 * Author: omeganet
 * Creation Date: 27 août 2024 at 11:34:35
 *********************************************/
NbCar=4;
NbSeq=15;
NbO=6;
N=[2,2,4,7];
O=[[1,1,0,0],[0,0,0,1],[1,1,1,1],[0,1,0,0],[0,0,1,0],[1,1,1,1]];
M=[3,5,2,5,5,5];
S=[2,2,1,2,3,1];